
Gurobi 12.0.2 (win64) logging started Wed Nov 26 14:56:53 2025

Set parameter LogFile to value "resultados DATA_1_n50m10b2d2\instancia_10_log.txt"
Set parameter TimeLimit to value 3600
Gurobi Optimizer version 12.0.2 build v12.0.2rc0 (win64 - Windows 10.0 (19045.2))

CPU model: Intel(R) Core(TM) i5-6300U CPU @ 2.40GHz, instruction set [SSE2|AVX|AVX2]
Thread count: 2 physical cores, 4 logical processors, using up to 4 threads

Non-default parameters:
TimeLimit  3600

Optimize a model with 1375 rows, 2928 columns and 708661 nonzeros
Model fingerprint: 0x7cf76b7d
Variable types: 0 continuous, 2928 integer (2928 binary)
Coefficient statistics:
  Matrix range     [1e+00, 1e+00]
  Objective range  [4e-02, 2e-01]
  Bounds range     [1e+00, 1e+00]
  RHS range        [1e+00, 9e+00]
Found heuristic solution: objective 0.5394240
Presolve removed 180 rows and 2723 columns
Presolve time: 0.72s
Presolved: 1195 rows, 205 columns, 30483 nonzeros
Found heuristic solution: objective 0.0829440
Variable types: 0 continuous, 205 integer (205 binary)
Found heuristic solution: objective 0.6267840

Root relaxation: objective 8.763163e-01, 496 iterations, 0.20 seconds (0.06 work units)

    Nodes    |    Current Node    |     Objective Bounds      |     Work
 Expl Unexpl |  Obj  Depth IntInf | Incumbent    BestBd   Gap | It/Node Time

     0     0    0.87632    0   69    0.62678    0.87632  39.8%     -    1s
H    0     0                       0.6452640    0.87632  35.8%     -    1s
H    0     0                       0.6889440    0.87632  27.2%     -    1s
H    0     0                       0.8040240    0.87632  8.99%     -    1s
     0     0    0.87632    0   79    0.80402    0.87632  8.99%     -    1s
H    0     0                       0.8106880    0.87632  8.10%     -    1s
     0     0    0.87101    0   66    0.81069    0.87101  7.44%     -    1s
     0     0    0.87095    0   86    0.81069    0.87095  7.43%     -    2s
     0     0    0.87044    0   99    0.81069    0.87044  7.37%     -    2s
     0     0    0.87024    0   97    0.81069    0.87024  7.35%     -    2s
     0     0    0.87023    0   97    0.81069    0.87023  7.34%     -    2s
     0     0    0.86941    0   97    0.81069    0.86941  7.24%     -    2s
     0     0    0.86939    0   98    0.81069    0.86939  7.24%     -    2s
     0     0    0.86936    0  102    0.81069    0.86936  7.24%     -    3s
     0     0    0.86935    0  102    0.81069    0.86935  7.24%     -    3s
     0     0    0.86931    0  100    0.81069    0.86931  7.23%     -    3s
     0     0    0.86930    0  102    0.81069    0.86930  7.23%     -    3s
     0     0    0.86927    0  106    0.81069    0.86927  7.23%     -    3s
     0     0    0.86927    0  106    0.81069    0.86927  7.23%     -    3s
H    0     0                       0.8543680    0.86927  1.74%     -    3s
H    0     0                       0.8585120    0.86927  1.25%     -    3s
     0     0    0.86927    0  104    0.85851    0.86927  1.25%     -    3s
     0     0    0.86925    0  101    0.85851    0.86925  1.25%     -    3s
     0     0    0.86924    0  106    0.85851    0.86924  1.25%     -    3s
     0     0    0.86924    0  103    0.85851    0.86924  1.25%     -    3s
     0     0    0.86924    0  106    0.85851    0.86924  1.25%     -    3s
     0     0    0.86923    0  102    0.85851    0.86923  1.25%     -    4s
     0     0    0.86923    0  102    0.85851    0.86923  1.25%     -    4s
     0     0    0.86923    0   72    0.85851    0.86923  1.25%     -    4s
     0     0    0.86884    0   98    0.85851    0.86884  1.20%     -    4s
     0     0    0.86830    0   92    0.85851    0.86830  1.14%     -    4s
     0     0    0.86774    0   95    0.85851    0.86774  1.08%     -    5s
     0     0    0.86762    0   96    0.85851    0.86762  1.06%     -    5s
     0     0    0.86718    0   99    0.85851    0.86718  1.01%     -    5s
     0     0    0.86526    0   90    0.85851    0.86526  0.79%     -    5s
     0     0    0.86516    0   93    0.85851    0.86516  0.77%     -    5s
     0     0    0.86513    0   94    0.85851    0.86513  0.77%     -    5s
     0     0    0.86507    0  105    0.85851    0.86507  0.76%     -    5s
     0     0    0.86506    0  103    0.85851    0.86506  0.76%     -    5s
     0     0    0.86497    0  110    0.85851    0.86497  0.75%     -    5s
     0     0    0.86497    0  110    0.85851    0.86497  0.75%     -    5s
     0     0    0.86490    0  107    0.85851    0.86490  0.74%     -    5s
     0     0    0.86490    0  106    0.85851    0.86490  0.74%     -    5s
     0     2    0.86490    0  106    0.85851    0.86490  0.74%     -    5s

Cutting planes:
  Gomory: 10
  MIR: 6
  Zero half: 22
  Mod-K: 3

Explored 31 nodes (5391 simplex iterations) in 5.75 seconds (2.60 work units)
Thread count was 4 (of 4 available processors)

Solution count 10: 0.858512 0.854368 0.810688 ... 0.082944
No other solutions better than 0.858512

Optimal solution found (tolerance 1.00e-04)
Best objective 8.585120000000e-01, best bound 8.585120000000e-01, gap 0.0000%
